p cnf 23 16
-1 -2 10 18 0 
-1 19 0 
-3 20 0 
-3 19 0 
-4 -5 20 0 
-4 -5 19 0 
-6 11 19 0 
-7 20 0 
-8 -9 -10 2 21 0 
-11 6 19 0 
-12 -13 16 -5 20 0 
-14 21 0 
-14 18 0 
-15 -16 13 22 0 
-14 23 0 
-17 21 0 
